<number of tasks>
50

<cycle time>
1000

<order strength>
0.595


<task times>
1 457
2 215
3 340
4 84
5 168
6 67
7 153
8 459
9 202
10 570
11 200
12 100
13 321
14 61
15 181
16 78
17 485
18 226
19 563
20 92
21 94
22 69
23 69
24 105
25 269
26 65
27 474
28 379
29 83
30 70
31 75
32 171
33 358
34 181
35 146
36 23
37 105
38 206
39 49
40 307
41 599
42 247
43 129
44 157
45 49
46 52
47 556
48 37
49 583
50 305

<precedence relations>
1,11
2,11
3,11
4,11
6,8
6,9
6,12
6,13
7,10
7,12
7,13
8,43
9,31
10,31
11,14
11,15
11,16
11,17
11,18
11,19
12,18
12,19
13,18
13,28
13,29
13,31
14,20
15,20
15,21
16,20
16,21
17,20
17,30
18,30
18,44
19,20
19,21
20,22
20,32
21,23
21,24
22,31
23,26
23,27
23,28
23,29
24,25
24,40
25,43
26,31
27,33
27,40
27,42
28,32
29,30
30,43
31,35
31,36
31,37
31,38
31,39
32,40
32,41
33,34
33,45
34,43
35,43
35,45
36,41
36,42
37,41
37,42
38,42
41,43
42,44
42,45
43,46
43,47
43,48
43,49
43,50

<end>
